(set-logic HORN)
(set-info :source |
    Benchmark: C_VC
    Output by Princess (http://www.philipp.ruemmer.org/princess.shtml)
|)
(set-info :status unsat)
(declare-heap Heap Addr HeapObject
 defObj
 ((HeapObject 0) (node 0)) (
  (
   (O_Int (getInt Int))
   (O_UInt (getUInt Int))
   (O_Addr (getAddr Addr))
   (O_node (getnode node))
   (defObj)
  )
  (
   (node (left Addr) (right Addr) (parent Addr) (value Int))
  )
))
(declare-fun inv_main13 (Heap Addr Addr) Bool)
(declare-fun inv_main16 (Heap Addr Addr) Bool)
(declare-fun inv_main19 (Heap Addr Addr) Bool)
(declare-fun inv_main2 (Heap) Bool)
(declare-fun inv_main22 (Heap Addr Addr Int) Bool)
(declare-fun inv_main27 (Heap Addr Addr Addr) Bool)
(declare-fun inv_main28 (Heap Addr Addr) Bool)
(declare-fun inv_main31 (Heap Addr Addr) Bool)
(declare-fun inv_main32 (Heap Addr Addr) Bool)
(declare-fun inv_main33 (Heap Addr Addr) Bool)
(declare-fun inv_main34 (Heap Addr Addr) Bool)
(declare-fun inv_main37 (Heap Addr) Bool)
(declare-fun inv_main48 (Heap Addr Addr) Bool)
(declare-fun inv_main52 (Heap Addr Addr) Bool)
(declare-fun inv_main53 (Heap Addr Addr) Bool)
(declare-fun inv_main54 (Heap Addr Addr) Bool)
(declare-fun inv_main60 (Heap Addr Addr) Bool)
(declare-fun inv_main64 (Heap Addr Addr) Bool)
(declare-fun inv_main68 (Heap Addr Addr) Bool)
(declare-fun inv_main7 (Heap Addr Addr) Bool)
(declare-fun inv_main79 (Heap Addr Addr Addr) Bool)
(declare-fun inv_main80 (Heap Addr Addr Addr) Bool)
(declare-fun inv_main86 (Heap Addr Addr Addr) Bool)
(declare-fun inv_main87 (Heap Addr Addr Addr) Bool)
(declare-fun inv_main88 (Heap Addr Addr Addr) Bool)
(declare-fun inv_main91 (Heap Addr Addr Addr) Bool)
(declare-fun inv_main93 (Heap Addr Addr Addr) Bool)
(assert (inv_main2 emptyHeap))
(assert (forall ((var0 Addr) (var1 Heap) (var2 Addr) (var3 Addr) (var4 Addr) (var5 Addr) (var6 Heap)) (or (not (and (inv_main27 var6 var5 var4 var3) (and (and (not (= var2 nullAddr)) (is-O_node (read var6 var4))) (and (and (= var1 (write var6 var4 (O_node (node var3 (right (getnode (read var6 var4))) (parent (getnode (read var6 var4))) (value (getnode (read var6 var4))))))) (= var0 var5)) (= var2 var4))))) (inv_main28 var1 var0 var2))))
(assert (forall ((var0 Addr) (var1 Addr) (var2 Addr) (var3 Heap) (var4 Addr) (var5 Addr) (var6 Addr) (var7 Addr) (var8 Heap)) (or (not (and (inv_main93 var8 var7 var6 var5) (and (not (= var4 nullAddr)) (and (is-O_node (read var8 var6)) (and (and (and (and (= var3 var8) (= var2 var7)) (= var1 var6)) (= var0 var5)) (= var4 (parent (getnode (read var8 var6))))))))) (inv_main86 var3 var2 var4 var0))))
(assert (forall ((var0 Addr) (var1 Addr) (var2 Heap) (var3 Addr) (var4 Addr) (var5 Addr) (var6 Addr) (var7 Addr) (var8 Heap)) (or (not (and (inv_main79 var8 var7 var6 var5) (and (not (= var4 nullAddr)) (and (and (= var3 nullAddr) (is-O_node (read var8 var6))) (and (and (and (and (= var2 var8) (= var1 var7)) (= var4 var6)) (= var0 var5)) (= var3 (right (getnode (read var8 var6))))))))) (inv_main86 var2 var1 var4 var0))))
(assert (forall ((var0 Addr) (var1 Addr) (var2 Heap)) (or (not (and (inv_main52 var2 var1 var0) (and (is-O_node (read var2 var0)) (not (= (left (getnode (read var2 var0))) nullAddr))))) (inv_main54 var2 var1 var0))))
(assert (forall ((var0 Addr) (var1 Heap) (var2 Addr) (var3 Addr) (var4 Addr) (var5 Addr) (var6 Heap)) (or (not (and (inv_main34 var6 var5 var4) (and (not (= var3 nullAddr)) (and (= var2 nullAddr) (and (is-O_node (read var6 var4)) (and (and (and (= var1 var6) (= var3 var5)) (= var0 var4)) (= var2 (right (getnode (read var6 var4)))))))))) (inv_main37 var1 var3))))
(assert (forall ((var0 Int) (var1 Addr) (var2 Addr) (var3 Heap)) (or (not (and (inv_main7 var3 var2 var1) (and (not (= var2 nullAddr)) (and (= var1 nullAddr) (= var0 0))))) (inv_main37 var3 var2))))
(assert (forall ((var0 Addr) (var1 Heap)) (or (not (and (inv_main37 var1 var0) (= var0 nullAddr))) (inv_main48 var1 var0 var0))))
(assert (forall ((var0 Addr) (var1 Addr) (var2 Heap)) (or (not (and (inv_main32 var2 var1 var0) (and (is-O_node (read var2 var0)) (is-O_node (read var2 (left (getnode (read var2 var0)))))))) (inv_main33 (write var2 (left (getnode (read var2 var0))) (O_node (node (left (getnode (read var2 (left (getnode (read var2 var0)))))) (right (getnode (read var2 (left (getnode (read var2 var0)))))) (parent (getnode (read var2 (left (getnode (read var2 var0)))))) 42))) var1 var0))))
(assert (forall ((var0 Addr) (var1 Addr) (var2 Heap) (var3 Int) (var4 Addr) (var5 Addr) (var6 Heap)) (or (not (and (inv_main54 var6 var5 var4) (and (and (not (= var3 42)) (and (is-O_node (read var6 var4)) (is-O_node (read var6 (left (getnode (read var6 var4))))))) (and (and (and (= var2 var6) (= var1 var5)) (= var0 var4)) (= var3 (value (getnode (read var6 (left (getnode (read var6 var4))))))))))) (inv_main60 var2 var1 var0))))
(assert (forall ((var0 Addr) (var1 Addr) (var2 Heap)) (or (not (and (inv_main33 var2 var1 var0) (and (is-O_node (read var2 var0)) (is-O_node (read var2 (left (getnode (read var2 var0)))))))) (inv_main34 (write var2 (left (getnode (read var2 var0))) (O_node (node (left (getnode (read var2 (left (getnode (read var2 var0)))))) (right (getnode (read var2 (left (getnode (read var2 var0)))))) var0 (value (getnode (read var2 (left (getnode (read var2 var0))))))))) var1 var0))))
(assert (forall ((var0 Addr) (var1 Addr) (var2 Heap) (var3 Addr) (var4 Addr) (var5 Addr) (var6 Heap)) (or (not (and (inv_main64 var6 var5 var4) (and (not (= var3 nullAddr)) (and (is-O_node (read var6 var4)) (and (and (and (= var2 var6) (= var1 var5)) (= var0 var4)) (= var3 (parent (getnode (read var6 var4))))))))) (inv_main52 var2 var1 var3))))
(assert (forall ((var0 Addr) (var1 Heap)) (or (not (and (inv_main37 var1 var0) (and (not (= var0 nullAddr)) (not (= var0 nullAddr))))) (inv_main52 var1 var0 var0))))
(assert (forall ((var0 Addr) (var1 Addr) (var2 Heap)) (or (not (and (inv_main53 var2 var1 var0) (and (is-O_node (read var2 var0)) (not (= (value (getnode (read var2 var0))) 0))))) (inv_main64 var2 var1 var0))))
(assert (forall ((var0 Addr) (var1 Addr) (var2 Heap)) (or (not (and (inv_main28 var2 var1 var0) (and (is-O_node (read var2 var0)) (is-O_node (read var2 (left (getnode (read var2 var0)))))))) (inv_main31 (write var2 (left (getnode (read var2 var0))) (O_node (node nullAddr (right (getnode (read var2 (left (getnode (read var2 var0)))))) (parent (getnode (read var2 (left (getnode (read var2 var0)))))) (value (getnode (read var2 (left (getnode (read var2 var0))))))))) var1 var0))))
(assert (forall ((var0 Addr) (var1 Addr) (var2 Addr) (var3 Heap)) (or (not (and (inv_main87 var3 var2 var1 var0) (and (is-O_node (read var3 var1)) (not (= (right (getnode (read var3 var1))) nullAddr))))) (inv_main91 var3 var2 var1 var0))))
(assert (forall ((var0 Addr) (var1 Addr) (var2 Heap)) (or (not (and (inv_main53 var2 var1 var0) (and (is-O_node (read var2 var0)) (= (value (getnode (read var2 var0))) 0)))) (inv_main68 var2 var1 var0))))
(assert (forall ((var0 Int) (var1 Addr) (var2 Addr) (var3 node) (var4 Heap) (var5 Addr) (var6 Addr) (var7 Addr) (var8 Heap)) (or (not (and (inv_main7 var8 var7 var6) (and (not (= var5 nullAddr)) (and (and (and (and (= var4 (newHeap (alloc var8 (O_node var3)))) (= var2 var7)) (= var1 var6)) (= var5 (newAddr (alloc var8 (O_node var3))))) (not (= var0 0)))))) (inv_main13 var4 var2 var5))))
(assert (forall ((var0 Addr) (var1 Addr) (var2 Addr) (var3 Heap)) (or (not (and (inv_main88 var3 var2 var1 var0) (is-O_node (read var3 var1)))) (inv_main87 (write var3 (left (getnode (read var3 var1))) defObj) var2 var1 var0))))
(assert (forall ((var0 Addr) (var1 Addr) (var2 Addr) (var3 Heap)) (or (not (and (inv_main86 var3 var2 var1 var0) (and (is-O_node (read var3 var1)) (= (left (getnode (read var3 var1))) nullAddr)))) (inv_main87 var3 var2 var1 var0))))
(assert (forall ((var0 Int) (var1 Addr) (var2 Addr) (var3 Heap) (var4 Int) (var5 Addr) (var6 Addr) (var7 Heap)) (or (not (and (inv_main22 var7 var6 var5 var4) (and (is-O_node (read var7 var5)) (and (and (and (= var3 (write var7 var5 (O_node (node (left (getnode (read var7 var5))) (right (getnode (read var7 var5))) (parent (getnode (read var7 var5))) var4)))) (= var2 var6)) (= var1 var5)) (= var0 var4))))) (inv_main7 var3 var1 var1))))
(assert (forall ((var0 Addr) (var1 Heap) (var2 Heap)) (or (not (and (inv_main2 var2) (and (= var1 var2) (= var0 nullAddr)))) (inv_main7 var1 var0 nullAddr))))
(assert (forall ((var0 Int) (var1 Addr) (var2 Addr) (var3 Heap) (var4 Addr) (var5 Addr) (var6 Heap)) (or (not (and (inv_main19 var6 var5 var4) (and (is-O_node (read var6 var5)) (and (and (= var3 (write var6 var5 (O_node (node (left (getnode (read var6 var5))) (right (getnode (read var6 var5))) var4 (value (getnode (read var6 var5))))))) (= var2 var5)) (= var1 var4))))) (inv_main22 var3 var2 var1 var0))))
(assert (forall ((var0 Int) (var1 Addr) (var2 Heap) (var3 Addr) (var4 Addr) (var5 Addr) (var6 Heap)) (or (not (and (inv_main16 var6 var5 var4) (and (and (= var3 nullAddr) (is-O_node (read var6 var4))) (and (and (= var2 (write var6 var4 (O_node (node (left (getnode (read var6 var4))) var5 (parent (getnode (read var6 var4))) (value (getnode (read var6 var4))))))) (= var3 var5)) (= var1 var4))))) (inv_main22 var2 var3 var1 var0))))
(assert (forall ((var0 Addr) (var1 Addr) (var2 Addr) (var3 Heap)) (or (not (and (inv_main86 var3 var2 var1 var0) (and (is-O_node (read var3 var1)) (not (= (left (getnode (read var3 var1))) nullAddr))))) (inv_main88 var3 var2 var1 var0))))
(assert (forall ((var0 Addr) (var1 Addr) (var2 Heap)) (or (not (and (inv_main52 var2 var1 var0) (and (is-O_node (read var2 var0)) (= (left (getnode (read var2 var0))) nullAddr)))) (inv_main53 var2 var1 var0))))
(assert (forall ((var0 Addr) (var1 Addr) (var2 Heap) (var3 Int) (var4 Addr) (var5 Addr) (var6 Heap)) (or (not (and (inv_main54 var6 var5 var4) (and (and (= var3 42) (and (is-O_node (read var6 var4)) (is-O_node (read var6 (left (getnode (read var6 var4))))))) (and (and (and (= var2 var6) (= var1 var5)) (= var0 var4)) (= var3 (value (getnode (read var6 (left (getnode (read var6 var4))))))))))) (inv_main53 var2 var1 var0))))
(assert (forall ((var0 Addr) (var1 Addr) (var2 Addr) (var3 Heap) (var4 Addr) (var5 Addr) (var6 Addr) (var7 Addr) (var8 Heap)) (or (not (and (inv_main79 var8 var7 var6 var5) (and (and (not (= var4 nullAddr)) (is-O_node (read var8 var6))) (and (and (and (and (= var3 var8) (= var2 var7)) (= var1 var6)) (= var0 var5)) (= var4 (right (getnode (read var8 var6)))))))) (inv_main80 var3 var2 var1 var0))))
(assert (forall ((var0 Addr) (var1 Addr) (var2 Addr) (var3 Addr) (var4 Heap) (var5 Addr) (var6 Addr) (var7 Addr) (var8 Heap)) (or (not (and (inv_main80 var8 var7 var6 var5) (and (is-O_node (read var8 var6)) (and (and (and (and (= var4 var8) (= var3 var7)) (= var2 var6)) (= var1 var5)) (= var0 (right (getnode (read var8 var6)))))))) (inv_main79 var4 var3 var0 var1))))
(assert (forall ((var0 Addr) (var1 Addr) (var2 Addr) (var3 Addr) (var4 Addr) (var5 Addr) (var6 Heap) (var7 Heap) (var8 Addr) (var9 Addr) (var10 Heap)) (or (not (and (inv_main64 var10 var9 var8) (and (and (and (and (= var7 var6) (= var5 var4)) (= var3 var4)) (= var2 nullAddr)) (and (= var1 nullAddr) (and (is-O_node (read var10 var8)) (and (and (and (= var6 var10) (= var4 var9)) (= var0 var8)) (= var1 (parent (getnode (read var10 var8)))))))))) (inv_main79 var7 var5 var3 var2))))
(assert (forall ((var0 Addr) (var1 Addr) (var2 Addr) (var3 Heap) (var4 Addr) (var5 Heap)) (or (not (and (inv_main37 var5 var4) (and (and (and (and (= var3 var5) (= var2 var4)) (= var1 var4)) (= var0 nullAddr)) (and (= var4 nullAddr) (not (= var4 nullAddr)))))) (inv_main79 var3 var2 var1 var0))))
(assert (forall ((var0 Addr) (var1 Addr) (var2 Addr) (var3 Heap) (var4 Addr) (var5 Addr) (var6 Addr) (var7 Heap)) (or (not (and (inv_main91 var7 var6 var5 var4) (and (is-O_node (read var7 var5)) (and (and (and (= var3 (write var7 (right (getnode (read var7 var5))) defObj)) (= var2 var6)) (= var1 var5)) (= var0 var4))))) (inv_main93 var3 var2 var1 var1))))
(assert (forall ((var0 Addr) (var1 Addr) (var2 Addr) (var3 Heap)) (or (not (and (inv_main87 var3 var2 var1 var0) (and (is-O_node (read var3 var1)) (= (right (getnode (read var3 var1))) nullAddr)))) (inv_main93 var3 var2 var1 var1))))
(assert (forall ((var0 Addr) (var1 Addr) (var2 Heap)) (or (not (and (inv_main13 var2 var1 var0) (is-O_node (read var2 var0)))) (inv_main16 (write var2 var0 (O_node (node nullAddr (right (getnode (read var2 var0))) (parent (getnode (read var2 var0))) (value (getnode (read var2 var0)))))) var1 var0))))
(assert (forall ((var0 Addr) (var1 Addr) (var2 Heap)) (or (not (and (inv_main31 var2 var1 var0) (and (is-O_node (read var2 var0)) (is-O_node (read var2 (left (getnode (read var2 var0)))))))) (inv_main32 (write var2 (left (getnode (read var2 var0))) (O_node (node (left (getnode (read var2 (left (getnode (read var2 var0)))))) nullAddr (parent (getnode (read var2 (left (getnode (read var2 var0)))))) (value (getnode (read var2 (left (getnode (read var2 var0))))))))) var1 var0))))
(assert (forall ((var0 node) (var1 Addr) (var2 Addr) (var3 Heap) (var4 Addr) (var5 Addr) (var6 Addr) (var7 Heap)) (or (not (and (inv_main34 var7 var6 var5) (and (not (= var4 nullAddr)) (and (is-O_node (read var7 var5)) (and (and (and (= var3 var7) (= var2 var6)) (= var1 var5)) (= var4 (right (getnode (read var7 var5))))))))) (inv_main27 (newHeap (alloc var3 (O_node var0))) var2 var4 (newAddr (alloc var3 (O_node var0)))))))
(assert (forall ((var0 node) (var1 Int) (var2 Addr) (var3 Addr) (var4 Heap)) (or (not (and (inv_main7 var4 var3 var2) (and (not (= var2 nullAddr)) (= var1 0)))) (inv_main27 (newHeap (alloc var4 (O_node var0))) var3 var2 (newAddr (alloc var4 (O_node var0)))))))
(assert (forall ((var0 Addr) (var1 Heap) (var2 Addr) (var3 Addr) (var4 Addr) (var5 Heap)) (or (not (and (inv_main16 var5 var4 var3) (and (and (not (= var2 nullAddr)) (is-O_node (read var5 var3))) (and (and (= var1 (write var5 var3 (O_node (node (left (getnode (read var5 var3))) var4 (parent (getnode (read var5 var3))) (value (getnode (read var5 var3))))))) (= var2 var4)) (= var0 var3))))) (inv_main19 var1 var2 var0))))
(assert (forall ((var0 Addr) (var1 Addr) (var2 Heap)) (not (and (inv_main13 var2 var1 var0) (not (is-O_node (read var2 var0)))))))
(assert (forall ((var0 Addr) (var1 Addr) (var2 Heap)) (not (and (inv_main16 var2 var1 var0) (not (is-O_node (read var2 var0)))))))
(assert (forall ((var0 Addr) (var1 Addr) (var2 Heap)) (not (and (inv_main19 var2 var1 var0) (not (is-O_node (read var2 var1)))))))
(assert (forall ((var0 Int) (var1 Addr) (var2 Addr) (var3 Heap)) (not (and (inv_main22 var3 var2 var1 var0) (not (is-O_node (read var3 var1)))))))
(assert (forall ((var0 Addr) (var1 Addr) (var2 Addr) (var3 Heap)) (not (and (inv_main27 var3 var2 var1 var0) (not (is-O_node (read var3 var1)))))))
(assert (forall ((var0 Addr) (var1 Addr) (var2 Heap)) (not (and (inv_main28 var2 var1 var0) (not (is-O_node (read var2 var0)))))))
(assert (forall ((var0 Addr) (var1 Addr) (var2 Heap)) (not (and (inv_main28 var2 var1 var0) (and (is-O_node (read var2 var0)) (not (is-O_node (read var2 (left (getnode (read var2 var0)))))))))))
(assert (forall ((var0 Addr) (var1 Addr) (var2 Heap)) (not (and (inv_main31 var2 var1 var0) (not (is-O_node (read var2 var0)))))))
(assert (forall ((var0 Addr) (var1 Addr) (var2 Heap)) (not (and (inv_main31 var2 var1 var0) (and (is-O_node (read var2 var0)) (not (is-O_node (read var2 (left (getnode (read var2 var0)))))))))))
(assert (forall ((var0 Addr) (var1 Addr) (var2 Heap)) (not (and (inv_main32 var2 var1 var0) (not (is-O_node (read var2 var0)))))))
(assert (forall ((var0 Addr) (var1 Addr) (var2 Heap)) (not (and (inv_main32 var2 var1 var0) (and (is-O_node (read var2 var0)) (not (is-O_node (read var2 (left (getnode (read var2 var0)))))))))))
(assert (forall ((var0 Addr) (var1 Addr) (var2 Heap)) (not (and (inv_main33 var2 var1 var0) (not (is-O_node (read var2 var0)))))))
(assert (forall ((var0 Addr) (var1 Addr) (var2 Heap)) (not (and (inv_main33 var2 var1 var0) (and (is-O_node (read var2 var0)) (not (is-O_node (read var2 (left (getnode (read var2 var0)))))))))))
(assert (forall ((var0 Addr) (var1 Addr) (var2 Heap)) (not (and (inv_main34 var2 var1 var0) (not (is-O_node (read var2 var0)))))))
(assert (forall ((var0 Addr) (var1 Addr) (var2 Heap)) (not (inv_main48 var2 var1 var0))))
(assert (forall ((var0 Addr) (var1 Addr) (var2 Heap)) (not (and (inv_main52 var2 var1 var0) (not (is-O_node (read var2 var0)))))))
(assert (forall ((var0 Addr) (var1 Addr) (var2 Heap)) (not (and (inv_main54 var2 var1 var0) (not (is-O_node (read var2 var0)))))))
(assert (forall ((var0 Addr) (var1 Addr) (var2 Heap)) (not (and (inv_main54 var2 var1 var0) (and (is-O_node (read var2 var0)) (not (is-O_node (read var2 (left (getnode (read var2 var0)))))))))))
(assert (forall ((var0 Addr) (var1 Addr) (var2 Heap)) (not (inv_main60 var2 var1 var0))))
(assert (forall ((var0 Addr) (var1 Addr) (var2 Heap)) (not (and (inv_main53 var2 var1 var0) (not (is-O_node (read var2 var0)))))))
(assert (forall ((var0 Addr) (var1 Addr) (var2 Heap)) (not (inv_main68 var2 var1 var0))))
(assert (forall ((var0 Addr) (var1 Addr) (var2 Heap)) (not (and (inv_main64 var2 var1 var0) (not (is-O_node (read var2 var0)))))))
(assert (forall ((var0 Addr) (var1 Addr) (var2 Addr) (var3 Heap)) (not (and (inv_main79 var3 var2 var1 var0) (not (is-O_node (read var3 var1)))))))
(assert (forall ((var0 Addr) (var1 Addr) (var2 Addr) (var3 Heap)) (not (and (inv_main80 var3 var2 var1 var0) (not (is-O_node (read var3 var1)))))))
(assert (forall ((var0 Addr) (var1 Addr) (var2 Addr) (var3 Heap)) (not (and (inv_main86 var3 var2 var1 var0) (not (is-O_node (read var3 var1)))))))
(assert (forall ((var0 Addr) (var1 Addr) (var2 Addr) (var3 Heap)) (not (and (inv_main88 var3 var2 var1 var0) (not (is-O_node (read var3 var1)))))))
(assert (forall ((var0 Addr) (var1 Addr) (var2 Addr) (var3 Heap)) (not (and (inv_main87 var3 var2 var1 var0) (not (is-O_node (read var3 var1)))))))
(assert (forall ((var0 Addr) (var1 Addr) (var2 Addr) (var3 Heap)) (not (and (inv_main91 var3 var2 var1 var0) (not (is-O_node (read var3 var1)))))))
(assert (forall ((var0 Addr) (var1 Addr) (var2 Addr) (var3 Heap)) (not (and (inv_main93 var3 var2 var1 var0) (not (is-O_node (read var3 var1)))))))
(check-sat)
